120
1000
200
200
199
199
198
198
198
198
197
197
197
196
194
193
193
192
192
192
191
191
190
190
190
190
190
189
187
187
185
185
184
183
183
181
181
181
181
181
181
181
181
180
180
179
179
178
178
178
178
177
177
177
176
176
175
175
173
173
173
172
172
172
172
171
170
169
169
169
169
168
168
168
167
167
167
166
166
165
165
165
165
165
164
163
163
163
163
162
162
162
162
161
160
160
159
158
158
158
157
157
157
157
156
156
156
156
156
155
155
155
154
154
154
154
153
152
151
151
150
150
